p cnf 386 460
4 -10 -13 21 22 0
4 -10 -13 21 -22 0
4 -10 -13 -21 23 0
4 -10 -13 -21 -23 0
-6 13 2 24 25 0
-6 13 2 24 -25 0
-6 13 2 -24 26 0
-6 13 2 -24 -26 0
-5 11 19 27 28 0
-5 11 19 27 -28 0
-5 11 19 -27 29 0
-5 11 19 -27 -29 0
-17 -16 9 30 31 0
-17 -16 9 30 -31 0
-17 -16 9 -30 32 0
-17 -16 9 -30 -32 0
-14 -13 18 33 34 0
-14 -13 18 33 -34 0
-14 -13 18 -33 35 0
-14 -13 18 -33 -35 0
-3 2 11 36 37 0
-3 2 11 36 -37 0
-3 2 11 -36 38 0
-3 2 11 -36 -38 0
8 9 16 39 40 0
8 9 16 39 -40 0
8 9 16 -39 41 0
8 9 16 -39 -41 0
-16 -8 -11 42 43 0
-16 -8 -11 42 -43 0
-16 -8 -11 -42 44 0
-16 -8 -11 -42 -44 0
20 -17 12 45 46 0
20 -17 12 45 -46 0
20 -17 12 -45 47 0
20 -17 12 -45 -47 0
9 10 -19 48 49 0
9 10 -19 48 -49 0
9 10 -19 -48 50 0
9 10 -19 -48 -50 0
13 11 -14 51 52 0
13 11 -14 51 -52 0
13 11 -14 -51 53 0
13 11 -14 -51 -53 0
8 12 4 54 55 0
8 12 4 54 -55 0
8 12 4 -54 56 0
8 12 4 -54 -56 0
-4 -17 -15 57 58 0
-4 -17 -15 57 -58 0
-4 -17 -15 -57 59 0
-4 -17 -15 -57 -59 0
-11 10 3 60 61 0
-11 10 3 60 -61 0
-11 10 3 -60 62 0
-11 10 3 -60 -62 0
-6 16 -8 63 64 0
-6 16 -8 63 -64 0
-6 16 -8 -63 65 0
-6 16 -8 -63 -65 0
4 -14 12 66 67 0
4 -14 12 66 -67 0
4 -14 12 -66 68 0
4 -14 12 -66 -68 0
-15 -11 -12 69 70 0
-15 -11 -12 69 -70 0
-15 -11 -12 -69 71 0
-15 -11 -12 -69 -71 0
-1 -9 12 72 73 0
-1 -9 12 72 -73 0
-1 -9 12 -72 74 0
-1 -9 12 -72 -74 0
5 9 17 75 76 0
5 9 17 75 -76 0
5 9 17 -75 77 0
5 9 17 -75 -77 0
16 11 20 78 79 0
16 11 20 78 -79 0
16 11 20 -78 80 0
16 11 20 -78 -80 0
-2 -6 -18 81 82 0
-2 -6 -18 81 -82 0
-2 -6 -18 -81 83 0
-2 -6 -18 -81 -83 0
-1 8 -7 84 85 0
-1 8 -7 84 -85 0
-1 8 -7 -84 86 0
-1 8 -7 -84 -86 0
10 -6 7 87 88 0
10 -6 7 87 -88 0
10 -6 7 -87 89 0
10 -6 7 -87 -89 0
8 -5 -14 90 91 0
8 -5 -14 90 -91 0
8 -5 -14 -90 92 0
8 -5 -14 -90 -92 0
9 7 -10 93 94 0
9 7 -10 93 -94 0
9 7 -10 -93 95 0
9 7 -10 -93 -95 0
11 -18 9 96 97 0
11 -18 9 96 -97 0
11 -18 9 -96 98 0
11 -18 9 -96 -98 0
-4 19 12 99 100 0
-4 19 12 99 -100 0
-4 19 12 -99 101 0
-4 19 12 -99 -101 0
5 10 17 102 103 0
5 10 17 102 -103 0
5 10 17 -102 104 0
5 10 17 -102 -104 0
14 -16 19 105 106 0
14 -16 19 105 -106 0
14 -16 19 -105 107 0
14 -16 19 -105 -107 0
12 -5 14 108 109 0
12 -5 14 108 -109 0
12 -5 14 -108 110 0
12 -5 14 -108 -110 0
-11 -14 4 111 112 0
-11 -14 4 111 -112 0
-11 -14 4 -111 113 0
-11 -14 4 -111 -113 0
-9 -14 -7 114 115 0
-9 -14 -7 114 -115 0
-9 -14 -7 -114 116 0
-9 -14 -7 -114 -116 0
-16 -5 -6 117 118 0
-16 -5 -6 117 -118 0
-16 -5 -6 -117 119 0
-16 -5 -6 -117 -119 0
14 17 -5 120 121 0
14 17 -5 120 -121 0
14 17 -5 -120 122 0
14 17 -5 -120 -122 0
13 18 17 123 124 0
13 18 17 123 -124 0
13 18 17 -123 125 0
13 18 17 -123 -125 0
-2 -16 5 126 127 0
-2 -16 5 126 -127 0
-2 -16 5 -126 128 0
-2 -16 5 -126 -128 0
-2 -12 14 129 130 0
-2 -12 14 129 -130 0
-2 -12 14 -129 131 0
-2 -12 14 -129 -131 0
-15 13 14 132 133 0
-15 13 14 132 -133 0
-15 13 14 -132 134 0
-15 13 14 -132 -134 0
19 -14 -15 135 136 0
19 -14 -15 135 -136 0
19 -14 -15 -135 137 0
19 -14 -15 -135 -137 0
-14 13 -18 138 139 0
-14 13 -18 138 -139 0
-14 13 -18 -138 140 0
-14 13 -18 -138 -140 0
20 1 18 141 142 0
20 1 18 141 -142 0
20 1 18 -141 143 0
20 1 18 -141 -143 0
-1 -20 10 144 145 0
-1 -20 10 144 -145 0
-1 -20 10 -144 146 0
-1 -20 10 -144 -146 0
-8 -7 -19 147 148 0
-8 -7 -19 147 -148 0
-8 -7 -19 -147 149 0
-8 -7 -19 -147 -149 0
7 11 12 150 151 0
7 11 12 150 -151 0
7 11 12 -150 152 0
7 11 12 -150 -152 0
13 -19 -1 153 154 0
13 -19 -1 153 -154 0
13 -19 -1 -153 155 0
13 -19 -1 -153 -155 0
1 15 7 156 157 0
1 15 7 156 -157 0
1 15 7 -156 158 0
1 15 7 -156 -158 0
3 18 17 159 160 0
3 18 17 159 -160 0
3 18 17 -159 161 0
3 18 17 -159 -161 0
-20 18 -1 162 163 0
-20 18 -1 162 -163 0
-20 18 -1 -162 164 0
-20 18 -1 -162 -164 0
6 15 12 165 166 0
6 15 12 165 -166 0
6 15 12 -165 167 0
6 15 12 -165 -167 0
5 1 -2 168 169 0
5 1 -2 168 -169 0
5 1 -2 -168 170 0
5 1 -2 -168 -170 0
-8 7 20 171 172 0
-8 7 20 171 -172 0
-8 7 20 -171 173 0
-8 7 20 -171 -173 0
-13 6 19 174 175 0
-13 6 19 174 -175 0
-13 6 19 -174 176 0
-13 6 19 -174 -176 0
14 -8 -4 177 178 0
14 -8 -4 177 -178 0
14 -8 -4 -177 179 0
14 -8 -4 -177 -179 0
16 6 5 180 181 0
16 6 5 180 -181 0
16 6 5 -180 182 0
16 6 5 -180 -182 0
7 -14 9 183 184 0
7 -14 9 183 -184 0
7 -14 9 -183 185 0
7 -14 9 -183 -185 0
15 -5 3 186 187 0
15 -5 3 186 -187 0
15 -5 3 -186 188 0
15 -5 3 -186 -188 0
-2 19 5 189 190 0
-2 19 5 189 -190 0
-2 19 5 -189 191 0
-2 19 5 -189 -191 0
-9 16 11 192 193 0
-9 16 11 192 -193 0
-9 16 11 -192 194 0
-9 16 11 -192 -194 0
-13 -11 -9 195 196 0
-13 -11 -9 195 -196 0
-13 -11 -9 -195 197 0
-13 -11 -9 -195 -197 0
2 3 12 198 199 0
2 3 12 198 -199 0
2 3 12 -198 200 0
2 3 12 -198 -200 0
-13 -4 15 201 202 0
-13 -4 15 201 -202 0
-13 -4 15 -201 203 0
-13 -4 15 -201 -203 0
1 15 -7 204 205 0
1 15 -7 204 -205 0
1 15 -7 -204 206 0
1 15 -7 -204 -206 0
12 -18 -11 207 208 0
12 -18 -11 207 -208 0
12 -18 -11 -207 209 0
12 -18 -11 -207 -209 0
-6 9 8 210 211 0
-6 9 8 210 -211 0
-6 9 8 -210 212 0
-6 9 8 -210 -212 0
13 -5 -7 213 214 0
13 -5 -7 213 -214 0
13 -5 -7 -213 215 0
13 -5 -7 -213 -215 0
13 6 -19 216 217 0
13 6 -19 216 -217 0
13 6 -19 -216 218 0
13 6 -19 -216 -218 0
15 3 -6 219 220 0
15 3 -6 219 -220 0
15 3 -6 -219 221 0
15 3 -6 -219 -221 0
16 -19 13 222 223 0
16 -19 13 222 -223 0
16 -19 13 -222 224 0
16 -19 13 -222 -224 0
3 -6 -17 225 226 0
3 -6 -17 225 -226 0
3 -6 -17 -225 227 0
3 -6 -17 -225 -227 0
-14 -13 -4 228 229 0
-14 -13 -4 228 -229 0
-14 -13 -4 -228 230 0
-14 -13 -4 -228 -230 0
-15 -9 3 231 232 0
-15 -9 3 231 -232 0
-15 -9 3 -231 233 0
-15 -9 3 -231 -233 0
5 10 -7 234 235 0
5 10 -7 234 -235 0
5 10 -7 -234 236 0
5 10 -7 -234 -236 0
-5 -6 -12 237 238 0
-5 -6 -12 237 -238 0
-5 -6 -12 -237 239 0
-5 -6 -12 -237 -239 0
6 14 -18 240 241 0
6 14 -18 240 -241 0
6 14 -18 -240 242 0
6 14 -18 -240 -242 0
3 -16 10 243 244 0
3 -16 10 243 -244 0
3 -16 10 -243 245 0
3 -16 10 -243 -245 0
4 10 13 246 247 0
4 10 13 246 -247 0
4 10 13 -246 248 0
4 10 13 -246 -248 0
-11 -8 18 249 250 0
-11 -8 18 249 -250 0
-11 -8 18 -249 251 0
-11 -8 18 -249 -251 0
11 -2 13 252 253 0
11 -2 13 252 -253 0
11 -2 13 -252 254 0
11 -2 13 -252 -254 0
-14 6 -17 255 256 0
-14 6 -17 255 -256 0
-14 6 -17 -255 257 0
-14 6 -17 -255 -257 0
-8 -11 -16 258 259 0
-8 -11 -16 258 -259 0
-8 -11 -16 -258 260 0
-8 -11 -16 -258 -260 0
1 2 14 261 262 0
1 2 14 261 -262 0
1 2 14 -261 263 0
1 2 14 -261 -263 0
-19 11 20 264 265 0
-19 11 20 264 -265 0
-19 11 20 -264 266 0
-19 11 20 -264 -266 0
6 10 20 267 268 0
6 10 20 267 -268 0
6 10 20 -267 269 0
6 10 20 -267 -269 0
-1 14 -20 270 271 0
-1 14 -20 270 -271 0
-1 14 -20 -270 272 0
-1 14 -20 -270 -272 0
-19 12 15 273 274 0
-19 12 15 273 -274 0
-19 12 15 -273 275 0
-19 12 15 -273 -275 0
16 -11 5 276 277 0
16 -11 5 276 -277 0
16 -11 5 -276 278 0
16 -11 5 -276 -278 0
-12 -17 18 279 280 0
-12 -17 18 279 -280 0
-12 -17 18 -279 281 0
-12 -17 18 -279 -281 0
-19 17 15 282 283 0
-19 17 15 282 -283 0
-19 17 15 -282 284 0
-19 17 15 -282 -284 0
2 -5 -17 285 286 0
2 -5 -17 285 -286 0
2 -5 -17 -285 287 0
2 -5 -17 -285 -287 0
-1 14 -10 288 289 0
-1 14 -10 288 -289 0
-1 14 -10 -288 290 0
-1 14 -10 -288 -290 0
20 -5 10 291 292 0
20 -5 10 291 -292 0
20 -5 10 -291 293 0
20 -5 10 -291 -293 0
294 295 297 301 309 0
294 295 297 301 -309 0
294 295 297 -301 310 0
294 295 297 -301 -310 0
294 295 -297 302 311 0
294 295 -297 302 -311 0
294 295 -297 -302 312 0
294 295 -297 -302 -312 0
294 -295 298 303 313 0
294 -295 298 303 -313 0
294 -295 298 -303 314 0
294 -295 298 -303 -314 0
294 -295 -298 304 315 0
294 -295 -298 304 -315 0
294 -295 -298 -304 316 0
294 -295 -298 -304 -316 0
-294 296 299 305 317 0
-294 296 299 305 -317 0
-294 296 299 -305 318 0
-294 296 299 -305 -318 0
-294 296 -299 306 319 0
-294 296 -299 306 -319 0
-294 296 -299 -306 320 0
-294 296 -299 -306 -320 0
-294 -296 300 307 321 0
-294 -296 300 307 -321 0
-294 -296 300 -307 322 0
-294 -296 300 -307 -322 0
-294 -296 -300 308 323 0
-294 -296 -300 308 -323 0
-294 -296 -300 -308 324 0
-294 -296 -300 -308 -324 0
325 326 328 332 340 0
325 326 328 332 -340 0
325 326 328 -332 341 0
325 326 328 -332 -341 0
325 326 -328 333 342 0
325 326 -328 333 -342 0
325 326 -328 -333 343 0
325 326 -328 -333 -343 0
325 -326 329 334 344 0
325 -326 329 334 -344 0
325 -326 329 -334 345 0
325 -326 329 -334 -345 0
325 -326 -329 335 346 0
325 -326 -329 335 -346 0
325 -326 -329 -335 347 0
325 -326 -329 -335 -347 0
-325 327 330 336 348 0
-325 327 330 336 -348 0
-325 327 330 -336 349 0
-325 327 330 -336 -349 0
-325 327 -330 337 350 0
-325 327 -330 337 -350 0
-325 327 -330 -337 351 0
-325 327 -330 -337 -351 0
-325 -327 331 338 352 0
-325 -327 331 338 -352 0
-325 -327 331 -338 353 0
-325 -327 331 -338 -353 0
-325 -327 -331 339 354 0
-325 -327 -331 339 -354 0
-325 -327 -331 -339 355 0
-325 -327 -331 -339 -355 0
356 357 359 363 371 0
356 357 359 363 -371 0
356 357 359 -363 372 0
356 357 359 -363 -372 0
356 357 -359 364 373 0
356 357 -359 364 -373 0
356 357 -359 -364 374 0
356 357 -359 -364 -374 0
356 -357 360 365 375 0
356 -357 360 365 -375 0
356 -357 360 -365 376 0
356 -357 360 -365 -376 0
356 -357 -360 366 377 0
356 -357 -360 366 -377 0
356 -357 -360 -366 378 0
356 -357 -360 -366 -378 0
-356 358 361 367 379 0
-356 358 361 367 -379 0
-356 358 361 -367 380 0
-356 358 361 -367 -380 0
-356 358 -361 368 381 0
-356 358 -361 368 -381 0
-356 358 -361 -368 382 0
-356 358 -361 -368 -382 0
-356 -358 362 369 383 0
-356 -358 362 369 -383 0
-356 -358 362 -369 384 0
-356 -358 362 -369 -384 0
-356 -358 -362 370 385 0
-356 -358 -362 370 -385 0
-356 -358 -362 -370 386 0
-356 -358 -362 -370 -386 0

